(set-option :produce-models true); benchmark generated from python API
(set-info :status unknown)
(declare-fun l_0_0_25 () Real)
(declare-fun _a_0_ () Real)
(declare-fun l_0_0_7 () Real)
(declare-fun l_0_0_26 () Real)
(declare-fun l_0_0_1 () Real)
(declare-fun _a_1_ () Real)
(declare-fun l_0_0_28 () Real)
(declare-fun l_0_0_19 () Real)
(declare-fun l_0_0_13 () Real)
(declare-fun _a_2_ () Real)
(declare-fun l_0_0_8 () Real)
(declare-fun l_0_0_27 () Real)
(declare-fun l_0_0_2 () Real)
(declare-fun _a_3_ () Real)
(declare-fun l_0_0_29 () Real)
(declare-fun l_0_0_20 () Real)
(declare-fun l_0_0_14 () Real)
(declare-fun l_0_0_10 () Real)
(declare-fun l_0_0_4 () Real)
(declare-fun l_0_0_9 () Real)
(declare-fun l_0_0_3 () Real)
(declare-fun l_0_0_5 () Real)
(declare-fun l_0_0_21 () Real)
(declare-fun l_0_0_15 () Real)
(declare-fun l_0_0_11 () Real)
(declare-fun l_0_0_6 () Real)
(declare-fun l_0_0_23 () Real)
(declare-fun l_0_0_22 () Real)
(declare-fun l_0_0_17 () Real)
(declare-fun l_0_0_16 () Real)
(declare-fun l_0_0_12 () Real)
(declare-fun l_0_0_30 () Real)
(declare-fun l_0_0_24 () Real)
(declare-fun l_0_0_18 () Real)
(declare-fun l_0_1_7 () Real)
(declare-fun l_0_1_25 () Real)
(declare-fun l_0_1_1 () Real)
(declare-fun l_0_1_9 () Real)
(declare-fun l_0_1_8 () Real)
(declare-fun l_0_1_27 () Real)
(declare-fun l_0_1_26 () Real)
(declare-fun l_0_1_13 () Real)
(declare-fun l_0_1_14 () Real)
(declare-fun l_0_1_2 () Real)
(declare-fun l_0_1_3 () Real)
(declare-fun l_0_1_28 () Real)
(declare-fun l_0_1_19 () Real)
(declare-fun l_0_1_10 () Real)
(declare-fun l_0_1_4 () Real)
(declare-fun l_0_1_29 () Real)
(declare-fun l_0_1_20 () Real)
(declare-fun l_0_1_16 () Real)
(declare-fun l_0_1_11 () Real)
(declare-fun l_0_1_5 () Real)
(declare-fun l_0_1_30 () Real)
(declare-fun l_0_1_22 () Real)
(declare-fun l_0_1_12 () Real)
(declare-fun l_0_1_6 () Real)
(declare-fun l_0_1_15 () Real)
(declare-fun l_0_1_21 () Real)
(declare-fun l_0_1_17 () Real)
(declare-fun l_0_1_23 () Real)
(declare-fun l_0_1_18 () Real)
(declare-fun l_0_1_24 () Real)
(declare-fun l_0_2_7 () Real)
(declare-fun l_0_2_31 () Real)
(declare-fun l_0_2_25 () Real)
(declare-fun l_0_2_1 () Real)
(declare-fun l_0_2_34 () Real)
(declare-fun l_0_2_28 () Real)
(declare-fun l_0_2_19 () Real)
(declare-fun l_0_2_10 () Real)
(declare-fun l_0_2_4 () Real)
(declare-fun l_0_2_9 () Real)
(declare-fun l_0_2_8 () Real)
(declare-fun l_0_2_33 () Real)
(declare-fun l_0_2_32 () Real)
(declare-fun l_0_2_27 () Real)
(declare-fun l_0_2_26 () Real)
(declare-fun l_0_2_13 () Real)
(declare-fun l_0_2_14 () Real)
(declare-fun l_0_2_2 () Real)
(declare-fun l_0_2_3 () Real)
(declare-fun l_0_2_35 () Real)
(declare-fun l_0_2_29 () Real)
(declare-fun l_0_2_20 () Real)
(declare-fun l_0_2_16 () Real)
(declare-fun l_0_2_11 () Real)
(declare-fun l_0_2_5 () Real)
(declare-fun l_0_2_36 () Real)
(declare-fun l_0_2_30 () Real)
(declare-fun l_0_2_22 () Real)
(declare-fun l_0_2_12 () Real)
(declare-fun l_0_2_6 () Real)
(declare-fun l_0_2_15 () Real)
(declare-fun l_0_2_21 () Real)
(declare-fun l_0_2_17 () Real)
(declare-fun l_0_2_23 () Real)
(declare-fun l_0_2_18 () Real)
(declare-fun l_0_2_24 () Real)
(declare-fun l_0_3_7 () Real)
(declare-fun l_0_3_25 () Real)
(declare-fun l_0_3_1 () Real)
(declare-fun l_0_3_8 () Real)
(declare-fun l_0_3_26 () Real)
(declare-fun l_0_3_13 () Real)
(declare-fun l_0_3_2 () Real)
(declare-fun l_0_3_28 () Real)
(declare-fun l_0_3_19 () Real)
(declare-fun l_0_3_10 () Real)
(declare-fun l_0_3_4 () Real)
(declare-fun l_0_3_9 () Real)
(declare-fun l_0_3_27 () Real)
(declare-fun l_0_3_14 () Real)
(declare-fun l_0_3_3 () Real)
(declare-fun l_0_3_29 () Real)
(declare-fun l_0_3_20 () Real)
(declare-fun l_0_3_16 () Real)
(declare-fun l_0_3_11 () Real)
(declare-fun l_0_3_5 () Real)
(declare-fun l_0_3_30 () Real)
(declare-fun l_0_3_22 () Real)
(declare-fun l_0_3_12 () Real)
(declare-fun l_0_3_6 () Real)
(declare-fun l_0_3_15 () Real)
(declare-fun l_0_3_21 () Real)
(declare-fun l_0_3_17 () Real)
(declare-fun l_0_3_23 () Real)
(declare-fun l_0_3_18 () Real)
(declare-fun l_0_3_24 () Real)
(assert
 (= (- _a_0_ (* l_0_0_25 l_0_0_25)) 0.0))
(assert
 (let ((?x167 (* l_0_0_7 l_0_0_7)))
 (let ((?x161 (* l_0_0_1 l_0_0_1)))
 (let ((?x162 (+ _a_1_ ?x161)))
 (= (- (- ?x162 (* (* 2.0 l_0_0_25) l_0_0_26)) ?x167) 0.0)))))
(assert
 (let ((?x186 (- (- (+ _a_2_ (* l_0_0_13 l_0_0_13)) (* l_0_0_19 l_0_0_19)) (* (* 2.0 l_0_0_25) l_0_0_28))))
 (= ?x186 0.0)))
(assert
 (let ((?x203 (* l_0_0_27 l_0_0_27)))
 (let ((?x201 (* l_0_0_26 l_0_0_26)))
 (let ((?x207 (- (- (- (+ _a_3_ (* (* 2.0 l_0_0_1) l_0_0_2)) ?x201) ?x203) (* (* 2.0 l_0_0_7) l_0_0_8))))
 (= ?x207 0.0)))))
(assert
 (let ((?x228 (- (* (* 2.0 l_0_0_1) l_0_0_4) (* (* 2.0 l_0_0_10) l_0_0_7))))
 (let ((?x234 (- (+ ?x228 (* (* 2.0 l_0_0_13) l_0_0_14)) (* (* 2.0 l_0_0_19) l_0_0_20))))
 (let ((?x240 (- (- ?x234 (* (* 2.0 l_0_0_26) l_0_0_28)) (* (* 2.0 l_0_0_27) l_0_0_29))))
 (= ?x240 0.0)))))
(assert
 (let ((?x277 (* l_0_0_9 l_0_0_9)))
 (let ((?x275 (* l_0_0_8 l_0_0_8)))
 (let ((?x273 (* l_0_0_3 l_0_0_3)))
 (let ((?x272 (* l_0_0_2 l_0_0_2)))
 (let ((?x274 (+ ?x272 ?x273)))
 (= (- (- ?x274 ?x275) ?x277) 0.0)))))))
(assert
 (let ((?x301 (* l_0_0_21 l_0_0_21)))
 (let ((?x299 (* l_0_0_20 l_0_0_20)))
 (let ((?x294 (* l_0_0_15 l_0_0_15)))
 (let ((?x292 (* l_0_0_14 l_0_0_14)))
 (let ((?x291 (- (* (* (- 2.0) l_0_0_10) l_0_0_8) (* (* 2.0 l_0_0_11) l_0_0_9))))
 (let ((?x300 (- (+ (+ (+ ?x291 ?x292) ?x294) (* (* 2.0 l_0_0_2) l_0_0_4)) ?x299)))
 (= (+ (- ?x300 ?x301) (* (* 2.0 l_0_0_3) l_0_0_5)) 0.0))))))))
(assert
 (let ((?x350 (* l_0_0_6 l_0_0_6)))
 (let ((?x348 (* l_0_0_5 l_0_0_5)))
 (let ((?x346 (* l_0_0_4 l_0_0_4)))
 (let ((?x332 (* l_0_0_12 l_0_0_12)))
 (let ((?x336 (+ (- (- (* (- l_0_0_10) l_0_0_10) (* l_0_0_11 l_0_0_11)) ?x332) (* (* 2.0 l_0_0_14) l_0_0_16))))
 (let ((?x342 (- (+ ?x336 (* (* 2.0 l_0_0_15) l_0_0_17)) (* (* 2.0 l_0_0_20) l_0_0_22))))
 (let ((?x351 (+ (+ (+ (- ?x342 (* (* 2.0 l_0_0_21) l_0_0_23)) ?x346) ?x348) ?x350)))
 (= ?x351 0.0)))))))))
(assert
 (let ((?x393 (* l_0_0_30 l_0_0_30)))
 (let ((?x391 (* l_0_0_29 l_0_0_29)))
 (let ((?x389 (* l_0_0_28 l_0_0_28)))
 (let ((?x388 (- (* (* 2.0 l_0_0_13) l_0_0_16) (* (* 2.0 l_0_0_19) l_0_0_22))))
 (= (- (- (- ?x388 ?x389) ?x391) ?x393) 0.0))))))
(assert
 (let ((?x425 (* l_0_0_24 l_0_0_24)))
 (let ((?x423 (* l_0_0_23 l_0_0_23)))
 (let ((?x421 (* l_0_0_22 l_0_0_22)))
 (let ((?x419 (* l_0_0_18 l_0_0_18)))
 (let ((?x422 (- (+ (+ (* l_0_0_16 l_0_0_16) (* l_0_0_17 l_0_0_17)) ?x419) ?x421)))
 (= (- (- ?x422 ?x423) ?x425) 0.0)))))))
(assert
 (>= l_0_0_1 0.0))
(assert
 (>= l_0_0_3 0.0))
(assert
 (>= l_0_0_6 0.0))
(assert
 (>= l_0_0_7 0.0))
(assert
 (>= l_0_0_9 0.0))
(assert
 (>= l_0_0_12 0.0))
(assert
 (>= l_0_0_13 0.0))
(assert
 (>= l_0_0_15 0.0))
(assert
 (>= l_0_0_18 0.0))
(assert
 (>= l_0_0_19 0.0))
(assert
 (>= l_0_0_21 0.0))
(assert
 (>= l_0_0_24 0.0))
(assert
 (>= l_0_0_25 0.0))
(assert
 (>= l_0_0_27 0.0))
(assert
 (>= l_0_0_30 0.0))
(assert
 (let ((?x462 (+ (- (* (* (- _a_0_) l_0_1_1) l_0_1_1) (* l_0_1_25 l_0_1_25)) (* 5.0 (* l_0_1_7 l_0_1_7)))))
 (= ?x462 0.0)))
(assert
 (let ((?x501 (* l_0_1_9 l_0_1_9)))
 (let ((?x502 (* 5.0 ?x501)))
 (let ((?x498 (* l_0_1_8 l_0_1_8)))
 (let ((?x499 (* 5.0 ?x498)))
 (let ((?x493 (* l_0_1_27 l_0_1_27)))
 (let ((?x491 (* l_0_1_26 l_0_1_26)))
 (let ((?x489 (* l_0_1_13 l_0_1_13)))
 (let ((?x481 (- (* (- _a_0_) (+ (* l_0_1_2 l_0_1_2) (* l_0_1_3 l_0_1_3))) (* (* (* 2.0 _a_1_) l_0_1_1) l_0_1_2))))
 (let ((?x488 (+ (- ?x481 (* (* _a_3_ l_0_1_1) l_0_1_1)) (* (* 20.0 l_0_1_13) l_0_1_14))))
 (let ((?x497 (- (- (- (- ?x488 ?x489) ?x491) ?x493) (* (* 2.0 l_0_1_7) l_0_1_8))))
 (= (- (+ (+ ?x497 ?x499) ?x502) (/ 5.0 2.0)) 0.0))))))))))))
(assert
 (let ((?x459 (* l_0_1_7 l_0_1_7)))
 (let ((?x489 (* l_0_1_13 l_0_1_13)))
 (let ((?x558 (* 10.0 ?x489)))
 (let ((?x556 (- (* (* (* (- 2.0) _a_0_) l_0_1_1) l_0_1_2) (* (* _a_1_ l_0_1_1) l_0_1_1))))
 (let ((?x565 (+ (- (+ ?x556 ?x558) (* (* 2.0 l_0_1_25) l_0_1_26)) (* (* 10.0 l_0_1_7) l_0_1_8))))
 (= (- (- ?x565 ?x459) 4.0) 0.0)))))))
(assert
 (let ((?x605 (* l_0_1_19 l_0_1_19)))
 (let ((?x606 (* 10.0 ?x605)))
 (let ((?x601 (- (* (* (* (- 2.0) _a_0_) l_0_1_1) l_0_1_4) (* (* _a_2_ l_0_1_1) l_0_1_1))))
 (let ((?x609 (- (+ (+ ?x601 (* (* 10.0 l_0_1_10) l_0_1_7)) ?x606) (* (* 2.0 l_0_1_25) l_0_1_28))))
 (= (+ ?x609 1.0) 0.0))))))
(assert
 (let ((?x634 (+ (* (* 2.0 l_0_1_2) l_0_1_4) (* (* 2.0 l_0_1_3) l_0_1_5))))
 (let ((?x454 (- _a_0_)))
 (let ((?x641 (- (- (* ?x454 ?x634) (* (* (* 2.0 _a_1_) l_0_1_1) l_0_1_4)) (* (* (* 2.0 _a_2_) l_0_1_1) l_0_1_2))))
 (let ((?x646 (+ (- ?x641 (* (* 2.0 l_0_1_10) l_0_1_7)) (* (* 10.0 l_0_1_10) l_0_1_8))))
 (let ((?x651 (+ (+ ?x646 (* (* 10.0 l_0_1_11) l_0_1_9)) (* (* 20.0 l_0_1_13) l_0_1_16))))
 (let ((?x657 (- (+ ?x651 (* (* 20.0 l_0_1_19) l_0_1_20)) (* (* 2.0 l_0_1_26) l_0_1_28))))
 (= (- ?x657 (* (* 2.0 l_0_1_27) l_0_1_29)) 0.0))))))))
(assert
 (let ((?x740 (* l_0_1_30 l_0_1_30)))
 (let ((?x738 (* l_0_1_29 l_0_1_29)))
 (let ((?x736 (* l_0_1_28 l_0_1_28)))
 (let ((?x605 (* l_0_1_19 l_0_1_19)))
 (let ((?x730 (* l_0_1_12 l_0_1_12)))
 (let ((?x731 (* 5.0 ?x730)))
 (let ((?x727 (* l_0_1_11 l_0_1_11)))
 (let ((?x728 (* 5.0 ?x727)))
 (let ((?x724 (* l_0_1_10 l_0_1_10)))
 (let ((?x725 (* 5.0 ?x724)))
 (let ((?x719 (* l_0_1_6 l_0_1_6)))
 (let ((?x720 (+ (+ (* l_0_1_4 l_0_1_4) (* l_0_1_5 l_0_1_5)) ?x719)))
 (let ((?x454 (- _a_0_)))
 (let ((?x726 (+ (- (* ?x454 ?x720) (* (* (* 2.0 _a_2_) l_0_1_1) l_0_1_4)) ?x725)))
 (let ((?x735 (- (+ (+ (+ ?x726 ?x728) ?x731) (* (* 20.0 l_0_1_19) l_0_1_22)) ?x605)))
 (= (- (- (- ?x735 ?x736) ?x738) ?x740) 0.0)))))))))))))))))
(assert
 (let ((?x501 (* l_0_1_9 l_0_1_9)))
 (let ((?x498 (* l_0_1_8 l_0_1_8)))
 (let ((?x790 (* l_0_1_15 l_0_1_15)))
 (let ((?x791 (* 10.0 ?x790)))
 (let ((?x787 (* l_0_1_14 l_0_1_14)))
 (let ((?x788 (* 10.0 ?x787)))
 (let ((?x783 (- (* (- _a_1_) (+ (* l_0_1_2 l_0_1_2) (* l_0_1_3 l_0_1_3))) (* (* (* 2.0 _a_3_) l_0_1_1) l_0_1_2))))
 (let ((?x793 (- (+ (+ (- ?x783 (* (* 2.0 l_0_1_13) l_0_1_14)) ?x788) ?x791) ?x498)))
 (= (- ?x793 ?x501) 0.0))))))))))
(assert
 (let ((?x634 (+ (* (* 2.0 l_0_1_2) l_0_1_4) (* (* 2.0 l_0_1_3) l_0_1_5))))
 (let ((?x778 (- _a_1_)))
 (let ((?x826 (- (* ?x778 ?x634) (* _a_2_ (+ (* l_0_1_2 l_0_1_2) (* l_0_1_3 l_0_1_3))))))
 (let ((?x830 (- (- ?x826 (* (* (* 2.0 _a_3_) l_0_1_1) l_0_1_4)) (* (* 2.0 l_0_1_10) l_0_1_8))))
 (let ((?x835 (- (- ?x830 (* (* 2.0 l_0_1_11) l_0_1_9)) (* (* 2.0 l_0_1_13) l_0_1_16))))
 (let ((?x841 (+ (+ ?x835 (* (* 20.0 l_0_1_14) l_0_1_16)) (* (* 20.0 l_0_1_15) l_0_1_17))))
 (let ((?x847 (+ (+ ?x841 (* 10.0 (* l_0_1_20 l_0_1_20))) (* 10.0 (* l_0_1_21 l_0_1_21)))))
 (= ?x847 0.0)))))))))
(assert
 (let ((?x909 (* l_0_1_18 l_0_1_18)))
 (let ((?x910 (* 10.0 ?x909)))
 (let ((?x906 (* l_0_1_17 l_0_1_17)))
 (let ((?x907 (* 10.0 ?x906)))
 (let ((?x903 (* l_0_1_16 l_0_1_16)))
 (let ((?x904 (* 10.0 ?x903)))
 (let ((?x730 (* l_0_1_12 l_0_1_12)))
 (let ((?x727 (* l_0_1_11 l_0_1_11)))
 (let ((?x724 (* l_0_1_10 l_0_1_10)))
 (let ((?x634 (+ (* (* 2.0 l_0_1_2) l_0_1_4) (* (* 2.0 l_0_1_3) l_0_1_5))))
 (let ((?x719 (* l_0_1_6 l_0_1_6)))
 (let ((?x720 (+ (+ (* l_0_1_4 l_0_1_4) (* l_0_1_5 l_0_1_5)) ?x719)))
 (let ((?x778 (- _a_1_)))
 (let ((?x905 (+ (- (- (- (- (* ?x778 ?x720) (* _a_2_ ?x634)) ?x724) ?x727) ?x730) ?x904)))
 (let ((?x917 (+ (- (+ (+ ?x905 ?x907) ?x910) (* (* 2.0 l_0_1_19) l_0_1_20)) (* (* 20.0 l_0_1_20) l_0_1_22))))
 (= (+ ?x917 (* (* 20.0 l_0_1_21) l_0_1_23)) 0.0)))))))))))))))))
(assert
 (let ((?x719 (* l_0_1_6 l_0_1_6)))
 (let ((?x720 (+ (+ (* l_0_1_4 l_0_1_4) (* l_0_1_5 l_0_1_5)) ?x719)))
 (let ((?x963 (- _a_2_)))
 (let ((?x977 (+ (- (* ?x963 ?x720) (* (* 2.0 l_0_1_19) l_0_1_22)) (* 10.0 (* l_0_1_22 l_0_1_22)))))
 (let ((?x983 (+ (+ ?x977 (* 10.0 (* l_0_1_23 l_0_1_23))) (* 10.0 (* l_0_1_24 l_0_1_24)))))
 (= ?x983 0.0)))))))
(assert
 (let ((?x790 (* l_0_1_15 l_0_1_15)))
 (let ((?x787 (* l_0_1_14 l_0_1_14)))
 (let ((?x1005 (- (* (- _a_3_) (+ (* l_0_1_2 l_0_1_2) (* l_0_1_3 l_0_1_3))) ?x787)))
 (= (- ?x1005 ?x790) 0.0)))))
(assert
 (let ((?x634 (+ (* (* 2.0 l_0_1_2) l_0_1_4) (* (* 2.0 l_0_1_3) l_0_1_5))))
 (let ((?x998 (- _a_3_)))
 (let ((?x1028 (- (- (* ?x998 ?x634) (* (* 2.0 l_0_1_14) l_0_1_16)) (* (* 2.0 l_0_1_15) l_0_1_17))))
 (= ?x1028 0.0)))))
(assert
 (let ((?x845 (* l_0_1_21 l_0_1_21)))
 (let ((?x842 (* l_0_1_20 l_0_1_20)))
 (let ((?x909 (* l_0_1_18 l_0_1_18)))
 (let ((?x906 (* l_0_1_17 l_0_1_17)))
 (let ((?x903 (* l_0_1_16 l_0_1_16)))
 (let ((?x719 (* l_0_1_6 l_0_1_6)))
 (let ((?x720 (+ (+ (* l_0_1_4 l_0_1_4) (* l_0_1_5 l_0_1_5)) ?x719)))
 (let ((?x998 (- _a_3_)))
 (= (- (- (- (- (- (* ?x998 ?x720) ?x903) ?x906) ?x909) ?x842) ?x845) 0.0))))))))))
(assert
 (let ((?x1082 (- (* (* (- 2.0) l_0_1_20) l_0_1_22) (* (* 2.0 l_0_1_21) l_0_1_23))))
 (= ?x1082 0.0)))
(assert
 (let ((?x981 (* l_0_1_24 l_0_1_24)))
 (= (- (- (* (- l_0_1_22) l_0_1_22) (* l_0_1_23 l_0_1_23)) ?x981) 0.0)))
(assert
 (>= l_0_1_1 0.0))
(assert
 (>= l_0_1_3 0.0))
(assert
 (>= l_0_1_6 0.0))
(assert
 (>= l_0_1_7 0.0))
(assert
 (>= l_0_1_9 0.0))
(assert
 (>= l_0_1_12 0.0))
(assert
 (>= l_0_1_13 0.0))
(assert
 (>= l_0_1_15 0.0))
(assert
 (>= l_0_1_18 0.0))
(assert
 (>= l_0_1_19 0.0))
(assert
 (>= l_0_1_21 0.0))
(assert
 (>= l_0_1_24 0.0))
(assert
 (>= l_0_1_25 0.0))
(assert
 (>= l_0_1_27 0.0))
(assert
 (>= l_0_1_30 0.0))
(assert
 (let ((?x1126 (* l_0_2_31 l_0_2_31)))
 (let ((?x1127 (- (- (* (* (- _a_0_) l_0_2_1) l_0_2_1) (* l_0_2_25 l_0_2_25)) ?x1126)))
 (= (+ ?x1127 (* 5.0 (* l_0_2_7 l_0_2_7))) 0.0))))
(assert
 (let ((?x1151 (* l_0_2_19 l_0_2_19)))
 (let ((?x1152 (* 10.0 ?x1151)))
 (let ((?x1147 (- (* (* (* (- 2.0) _a_0_) l_0_2_1) l_0_2_4) (* (* _a_2_ l_0_2_1) l_0_2_1))))
 (let ((?x1156 (- (+ (+ ?x1147 (* (* 10.0 l_0_2_10) l_0_2_7)) ?x1152) (* (* 2.0 l_0_2_25) l_0_2_28))))
 (= (- (- ?x1156 (* (* 2.0 l_0_2_31) l_0_2_34)) 1.0) 0.0))))))
(assert
 (let ((?x1208 (* l_0_2_33 l_0_2_33)))
 (let ((?x1206 (* l_0_2_32 l_0_2_32)))
 (let ((?x1204 (* l_0_2_27 l_0_2_27)))
 (let ((?x1202 (* l_0_2_26 l_0_2_26)))
 (let ((?x1200 (* l_0_2_13 l_0_2_13)))
 (let ((?x1193 (- (* (- _a_0_) (+ (* l_0_2_2 l_0_2_2) (* l_0_2_3 l_0_2_3))) (* (* (* 2.0 _a_1_) l_0_2_1) l_0_2_2))))
 (let ((?x1199 (+ (- ?x1193 (* (* _a_3_ l_0_2_1) l_0_2_1)) (* (* 20.0 l_0_2_13) l_0_2_14))))
 (let ((?x1212 (- (- (- (- (- (- ?x1199 ?x1200) ?x1202) ?x1204) ?x1206) ?x1208) (* (* 2.0 l_0_2_7) l_0_2_8))))
 (let ((?x1218 (+ (+ ?x1212 (* 5.0 (* l_0_2_8 l_0_2_8))) (* 5.0 (* l_0_2_9 l_0_2_9)))))
 (= (+ ?x1218 (/ 7.0 2.0)) 0.0)))))))))))
(assert
 (let ((?x1128 (* l_0_2_7 l_0_2_7)))
 (let ((?x1200 (* l_0_2_13 l_0_2_13)))
 (let ((?x1270 (* 10.0 ?x1200)))
 (let ((?x1269 (- (* (* (* (- 2.0) _a_0_) l_0_2_1) l_0_2_2) (* (* _a_1_ l_0_2_1) l_0_2_1))))
 (let ((?x1275 (- (- (+ ?x1269 ?x1270) (* (* 2.0 l_0_2_25) l_0_2_26)) (* (* 2.0 l_0_2_31) l_0_2_32))))
 (= (+ (- (+ ?x1275 (* (* 10.0 l_0_2_7) l_0_2_8)) ?x1128) 3.0) 0.0)))))))
(assert
 (let ((?x1317 (+ (* (* 2.0 l_0_2_2) l_0_2_4) (* (* 2.0 l_0_2_3) l_0_2_5))))
 (let ((?x454 (- _a_0_)))
 (let ((?x1323 (- (- (* ?x454 ?x1317) (* (* (* 2.0 _a_1_) l_0_2_1) l_0_2_4)) (* (* (* 2.0 _a_2_) l_0_2_1) l_0_2_2))))
 (let ((?x1328 (+ (- ?x1323 (* (* 2.0 l_0_2_10) l_0_2_7)) (* (* 10.0 l_0_2_10) l_0_2_8))))
 (let ((?x1333 (+ (+ ?x1328 (* (* 10.0 l_0_2_11) l_0_2_9)) (* (* 20.0 l_0_2_13) l_0_2_16))))
 (let ((?x1339 (- (+ ?x1333 (* (* 20.0 l_0_2_19) l_0_2_20)) (* (* 2.0 l_0_2_26) l_0_2_28))))
 (let ((?x1345 (- (- ?x1339 (* (* 2.0 l_0_2_27) l_0_2_29)) (* (* 2.0 l_0_2_32) l_0_2_34))))
 (= (- ?x1345 (* (* 2.0 l_0_2_33) l_0_2_35)) 0.0)))))))))
(assert
 (let ((?x1446 (* l_0_2_36 l_0_2_36)))
 (let ((?x1444 (* l_0_2_35 l_0_2_35)))
 (let ((?x1442 (* l_0_2_34 l_0_2_34)))
 (let ((?x1440 (* l_0_2_30 l_0_2_30)))
 (let ((?x1438 (* l_0_2_29 l_0_2_29)))
 (let ((?x1436 (* l_0_2_28 l_0_2_28)))
 (let ((?x1151 (* l_0_2_19 l_0_2_19)))
 (let ((?x1430 (* l_0_2_12 l_0_2_12)))
 (let ((?x1431 (* 5.0 ?x1430)))
 (let ((?x1427 (* l_0_2_11 l_0_2_11)))
 (let ((?x1428 (* 5.0 ?x1427)))
 (let ((?x1424 (* l_0_2_10 l_0_2_10)))
 (let ((?x1425 (* 5.0 ?x1424)))
 (let ((?x1419 (* l_0_2_6 l_0_2_6)))
 (let ((?x1420 (+ (+ (* l_0_2_4 l_0_2_4) (* l_0_2_5 l_0_2_5)) ?x1419)))
 (let ((?x454 (- _a_0_)))
 (let ((?x1426 (+ (- (* ?x454 ?x1420) (* (* (* 2.0 _a_2_) l_0_2_1) l_0_2_4)) ?x1425)))
 (let ((?x1435 (- (+ (+ (+ ?x1426 ?x1428) ?x1431) (* (* 20.0 l_0_2_19) l_0_2_22)) ?x1151)))
 (= (- (- (- (- (- (- ?x1435 ?x1436) ?x1438) ?x1440) ?x1442) ?x1444) ?x1446) 0.0))))))))))))))))))))
(assert
 (let ((?x1216 (* l_0_2_9 l_0_2_9)))
 (let ((?x1213 (* l_0_2_8 l_0_2_8)))
 (let ((?x1503 (* l_0_2_15 l_0_2_15)))
 (let ((?x1504 (* 10.0 ?x1503)))
 (let ((?x1500 (* l_0_2_14 l_0_2_14)))
 (let ((?x1501 (* 10.0 ?x1500)))
 (let ((?x1496 (- (* (- _a_1_) (+ (* l_0_2_2 l_0_2_2) (* l_0_2_3 l_0_2_3))) (* (* (* 2.0 _a_3_) l_0_2_1) l_0_2_2))))
 (let ((?x1506 (- (+ (+ (- ?x1496 (* (* 2.0 l_0_2_13) l_0_2_14)) ?x1501) ?x1504) ?x1213)))
 (= (- ?x1506 ?x1216) 0.0))))))))))
(assert
 (let ((?x1317 (+ (* (* 2.0 l_0_2_2) l_0_2_4) (* (* 2.0 l_0_2_3) l_0_2_5))))
 (let ((?x778 (- _a_1_)))
 (let ((?x1538 (- (* ?x778 ?x1317) (* _a_2_ (+ (* l_0_2_2 l_0_2_2) (* l_0_2_3 l_0_2_3))))))
 (let ((?x1542 (- (- ?x1538 (* (* (* 2.0 _a_3_) l_0_2_1) l_0_2_4)) (* (* 2.0 l_0_2_10) l_0_2_8))))
 (let ((?x1547 (- (- ?x1542 (* (* 2.0 l_0_2_11) l_0_2_9)) (* (* 2.0 l_0_2_13) l_0_2_16))))
 (let ((?x1553 (+ (+ ?x1547 (* (* 20.0 l_0_2_14) l_0_2_16)) (* (* 20.0 l_0_2_15) l_0_2_17))))
 (let ((?x1559 (+ (+ ?x1553 (* 10.0 (* l_0_2_20 l_0_2_20))) (* 10.0 (* l_0_2_21 l_0_2_21)))))
 (= ?x1559 0.0)))))))))
(assert
 (let ((?x1621 (* l_0_2_18 l_0_2_18)))
 (let ((?x1622 (* 10.0 ?x1621)))
 (let ((?x1618 (* l_0_2_17 l_0_2_17)))
 (let ((?x1619 (* 10.0 ?x1618)))
 (let ((?x1615 (* l_0_2_16 l_0_2_16)))
 (let ((?x1616 (* 10.0 ?x1615)))
 (let ((?x1430 (* l_0_2_12 l_0_2_12)))
 (let ((?x1427 (* l_0_2_11 l_0_2_11)))
 (let ((?x1424 (* l_0_2_10 l_0_2_10)))
 (let ((?x1317 (+ (* (* 2.0 l_0_2_2) l_0_2_4) (* (* 2.0 l_0_2_3) l_0_2_5))))
 (let ((?x1419 (* l_0_2_6 l_0_2_6)))
 (let ((?x1420 (+ (+ (* l_0_2_4 l_0_2_4) (* l_0_2_5 l_0_2_5)) ?x1419)))
 (let ((?x778 (- _a_1_)))
 (let ((?x1617 (+ (- (- (- (- (* ?x778 ?x1420) (* _a_2_ ?x1317)) ?x1424) ?x1427) ?x1430) ?x1616)))
 (let ((?x1629 (+ (- (+ (+ ?x1617 ?x1619) ?x1622) (* (* 2.0 l_0_2_19) l_0_2_20)) (* (* 20.0 l_0_2_20) l_0_2_22))))
 (= (+ ?x1629 (* (* 20.0 l_0_2_21) l_0_2_23)) 0.0)))))))))))))))))
(assert
 (let ((?x1419 (* l_0_2_6 l_0_2_6)))
 (let ((?x1420 (+ (+ (* l_0_2_4 l_0_2_4) (* l_0_2_5 l_0_2_5)) ?x1419)))
 (let ((?x963 (- _a_2_)))
 (let ((?x1688 (+ (- (* ?x963 ?x1420) (* (* 2.0 l_0_2_19) l_0_2_22)) (* 10.0 (* l_0_2_22 l_0_2_22)))))
 (let ((?x1694 (+ (+ ?x1688 (* 10.0 (* l_0_2_23 l_0_2_23))) (* 10.0 (* l_0_2_24 l_0_2_24)))))
 (= ?x1694 0.0)))))))
(assert
 (let ((?x1503 (* l_0_2_15 l_0_2_15)))
 (let ((?x1500 (* l_0_2_14 l_0_2_14)))
 (let ((?x1714 (- (* (- _a_3_) (+ (* l_0_2_2 l_0_2_2) (* l_0_2_3 l_0_2_3))) ?x1500)))
 (= (- ?x1714 ?x1503) 0.0)))))
(assert
 (let ((?x1317 (+ (* (* 2.0 l_0_2_2) l_0_2_4) (* (* 2.0 l_0_2_3) l_0_2_5))))
 (let ((?x998 (- _a_3_)))
 (let ((?x1736 (- (- (* ?x998 ?x1317) (* (* 2.0 l_0_2_14) l_0_2_16)) (* (* 2.0 l_0_2_15) l_0_2_17))))
 (= ?x1736 0.0)))))
(assert
 (let ((?x1557 (* l_0_2_21 l_0_2_21)))
 (let ((?x1554 (* l_0_2_20 l_0_2_20)))
 (let ((?x1621 (* l_0_2_18 l_0_2_18)))
 (let ((?x1618 (* l_0_2_17 l_0_2_17)))
 (let ((?x1615 (* l_0_2_16 l_0_2_16)))
 (let ((?x1419 (* l_0_2_6 l_0_2_6)))
 (let ((?x1420 (+ (+ (* l_0_2_4 l_0_2_4) (* l_0_2_5 l_0_2_5)) ?x1419)))
 (let ((?x998 (- _a_3_)))
 (= (- (- (- (- (- (* ?x998 ?x1420) ?x1615) ?x1618) ?x1621) ?x1554) ?x1557) 0.0))))))))))
(assert
 (let ((?x1790 (- (* (* (- 2.0) l_0_2_20) l_0_2_22) (* (* 2.0 l_0_2_21) l_0_2_23))))
 (= ?x1790 0.0)))
(assert
 (let ((?x1692 (* l_0_2_24 l_0_2_24)))
 (= (- (- (* (- l_0_2_22) l_0_2_22) (* l_0_2_23 l_0_2_23)) ?x1692) 0.0)))
(assert
 (>= l_0_2_1 0.0))
(assert
 (>= l_0_2_3 0.0))
(assert
 (>= l_0_2_6 0.0))
(assert
 (>= l_0_2_7 0.0))
(assert
 (>= l_0_2_9 0.0))
(assert
 (>= l_0_2_12 0.0))
(assert
 (>= l_0_2_13 0.0))
(assert
 (>= l_0_2_15 0.0))
(assert
 (>= l_0_2_18 0.0))
(assert
 (>= l_0_2_19 0.0))
(assert
 (>= l_0_2_21 0.0))
(assert
 (>= l_0_2_24 0.0))
(assert
 (>= l_0_2_25 0.0))
(assert
 (>= l_0_2_27 0.0))
(assert
 (>= l_0_2_30 0.0))
(assert
 (>= l_0_2_31 0.0))
(assert
 (>= l_0_2_33 0.0))
(assert
 (>= l_0_2_36 0.0))
(assert
 (let ((?x1843 (* l_0_3_25 l_0_3_25)))
 (let ((?x1839 (* (/ 11.0 2.0) _a_2_)))
 (let ((?x1837 (+ (+ (* (* (- _a_0_) l_0_3_1) l_0_3_1) _a_0_) (* 1.0 _a_1_))))
 (let ((?x1847 (- (- (+ (+ ?x1837 ?x1839) (* 1.0 _a_3_)) ?x1843) (* (* 5.0 l_0_3_7) l_0_3_7))))
 (= ?x1847 0.0))))))
(assert
 (let ((?x1855 (* l_0_3_7 l_0_3_7)))
 (let ((?x780 (* 2.0 _a_3_)))
 (let ((?x1839 (* (/ 11.0 2.0) _a_2_)))
 (let ((?x1866 (- (* (* (* (- 2.0) _a_0_) l_0_3_1) l_0_3_2) (* (* _a_1_ l_0_3_1) l_0_3_1))))
 (let ((?x1872 (- (+ (+ (+ ?x1866 _a_1_) ?x1839) ?x780) (* (* 10.0 l_0_3_13) l_0_3_13))))
 (let ((?x1878 (- (- ?x1872 (* (* 2.0 l_0_3_25) l_0_3_26)) (* (* 10.0 l_0_3_7) l_0_3_8))))
 (= (+ ?x1878 ?x1855) 0.0))))))))
(assert
 (let ((?x1911 (- (* (* (* (- 2.0) _a_0_) l_0_3_1) l_0_3_4) (* (* _a_2_ l_0_3_1) l_0_3_1))))
 (let ((?x1918 (- (- (+ ?x1911 _a_2_) (* (* 10.0 l_0_3_10) l_0_3_7)) (* (* 10.0 l_0_3_19) l_0_3_19))))
 (= (- ?x1918 (* (* 2.0 l_0_3_25) l_0_3_28)) 0.0))))
(assert
 (let ((?x1966 (* l_0_3_27 l_0_3_27)))
 (let ((?x1964 (* l_0_3_26 l_0_3_26)))
 (let ((?x1888 (* l_0_3_13 l_0_3_13)))
 (let ((?x1955 (- (* (- _a_0_) (+ (* l_0_3_2 l_0_3_2) (* l_0_3_3 l_0_3_3))) (* (* (* 2.0 _a_1_) l_0_3_1) l_0_3_2))))
 (let ((?x1962 (- (+ (- ?x1955 (* (* _a_3_ l_0_3_1) l_0_3_1)) _a_3_) (* (* 20.0 l_0_3_13) l_0_3_14))))
 (let ((?x1970 (+ (- (- (+ ?x1962 ?x1888) ?x1964) ?x1966) (* (* 2.0 l_0_3_7) l_0_3_8))))
 (let ((?x1976 (- (- ?x1970 (* (* 5.0 l_0_3_8) l_0_3_8)) (* (* 5.0 l_0_3_9) l_0_3_9))))
 (= ?x1976 0.0)))))))))
(assert
 (let ((?x2026 (+ (* (* 2.0 l_0_3_2) l_0_3_4) (* (* 2.0 l_0_3_3) l_0_3_5))))
 (let ((?x454 (- _a_0_)))
 (let ((?x2032 (- (- (* ?x454 ?x2026) (* (* (* 2.0 _a_1_) l_0_3_1) l_0_3_4)) (* (* (* 2.0 _a_2_) l_0_3_1) l_0_3_2))))
 (let ((?x2037 (- (+ ?x2032 (* (* 2.0 l_0_3_10) l_0_3_7)) (* (* 10.0 l_0_3_10) l_0_3_8))))
 (let ((?x2042 (- (- ?x2037 (* (* 10.0 l_0_3_11) l_0_3_9)) (* (* 20.0 l_0_3_13) l_0_3_16))))
 (let ((?x2048 (- (- ?x2042 (* (* 20.0 l_0_3_19) l_0_3_20)) (* (* 2.0 l_0_3_26) l_0_3_28))))
 (= (- ?x2048 (* (* 2.0 l_0_3_27) l_0_3_29)) 0.0))))))))
(assert
 (let ((?x2138 (* l_0_3_30 l_0_3_30)))
 (let ((?x2136 (* l_0_3_29 l_0_3_29)))
 (let ((?x2134 (* l_0_3_28 l_0_3_28)))
 (let ((?x1936 (* l_0_3_19 l_0_3_19)))
 (let ((?x2117 (* l_0_3_6 l_0_3_6)))
 (let ((?x2118 (+ (+ (* l_0_3_4 l_0_3_4) (* l_0_3_5 l_0_3_5)) ?x2117)))
 (let ((?x454 (- _a_0_)))
 (let ((?x2124 (- (- (* ?x454 ?x2118) (* (* (* 2.0 _a_2_) l_0_3_1) l_0_3_4)) (* (* 5.0 l_0_3_10) l_0_3_10))))
 (let ((?x2130 (- (- ?x2124 (* (* 5.0 l_0_3_11) l_0_3_11)) (* (* 5.0 l_0_3_12) l_0_3_12))))
 (let ((?x2137 (- (- (+ (- ?x2130 (* (* 20.0 l_0_3_19) l_0_3_22)) ?x1936) ?x2134) ?x2136)))
 (= (- ?x2137 ?x2138) 0.0))))))))))))
(assert
 (let ((?x2015 (* l_0_3_9 l_0_3_9)))
 (let ((?x2009 (* l_0_3_8 l_0_3_8)))
 (let ((?x2193 (- (* (- _a_1_) (+ (* l_0_3_2 l_0_3_2) (* l_0_3_3 l_0_3_3))) (* (* (* 2.0 _a_3_) l_0_3_1) l_0_3_2))))
 (let ((?x2199 (- (+ ?x2193 (* (* 2.0 l_0_3_13) l_0_3_14)) (* (* 10.0 l_0_3_14) l_0_3_14))))
 (= (+ (+ (- ?x2199 (* (* 10.0 l_0_3_15) l_0_3_15)) ?x2009) ?x2015) 0.0))))))
(assert
 (let ((?x2026 (+ (* (* 2.0 l_0_3_2) l_0_3_4) (* (* 2.0 l_0_3_3) l_0_3_5))))
 (let ((?x778 (- _a_1_)))
 (let ((?x2235 (- (* ?x778 ?x2026) (* _a_2_ (+ (* l_0_3_2 l_0_3_2) (* l_0_3_3 l_0_3_3))))))
 (let ((?x2239 (+ (- ?x2235 (* (* (* 2.0 _a_3_) l_0_3_1) l_0_3_4)) (* (* 2.0 l_0_3_10) l_0_3_8))))
 (let ((?x2244 (+ (+ ?x2239 (* (* 2.0 l_0_3_11) l_0_3_9)) (* (* 2.0 l_0_3_13) l_0_3_16))))
 (let ((?x2250 (- (- ?x2244 (* (* 20.0 l_0_3_14) l_0_3_16)) (* (* 20.0 l_0_3_15) l_0_3_17))))
 (let ((?x2256 (- (- ?x2250 (* (* 10.0 l_0_3_20) l_0_3_20)) (* (* 10.0 l_0_3_21) l_0_3_21))))
 (= ?x2256 0.0)))))))))
(assert
 (let ((?x2167 (* l_0_3_12 l_0_3_12)))
 (let ((?x2161 (* l_0_3_11 l_0_3_11)))
 (let ((?x2155 (* l_0_3_10 l_0_3_10)))
 (let ((?x2026 (+ (* (* 2.0 l_0_3_2) l_0_3_4) (* (* 2.0 l_0_3_3) l_0_3_5))))
 (let ((?x2117 (* l_0_3_6 l_0_3_6)))
 (let ((?x2118 (+ (+ (* l_0_3_4 l_0_3_4) (* l_0_3_5 l_0_3_5)) ?x2117)))
 (let ((?x778 (- _a_1_)))
 (let ((?x2320 (- (+ (+ (+ (- (* ?x778 ?x2118) (* _a_2_ ?x2026)) ?x2155) ?x2161) ?x2167) (* (* 10.0 l_0_3_16) l_0_3_16))))
 (let ((?x2326 (- (- ?x2320 (* (* 10.0 l_0_3_17) l_0_3_17)) (* (* 10.0 l_0_3_18) l_0_3_18))))
 (let ((?x2332 (- (+ ?x2326 (* (* 2.0 l_0_3_19) l_0_3_20)) (* (* 20.0 l_0_3_20) l_0_3_22))))
 (= (- ?x2332 (* (* 20.0 l_0_3_21) l_0_3_23)) 0.0))))))))))))
(assert
 (let ((?x2117 (* l_0_3_6 l_0_3_6)))
 (let ((?x2118 (+ (+ (* l_0_3_4 l_0_3_4) (* l_0_3_5 l_0_3_5)) ?x2117)))
 (let ((?x963 (- _a_2_)))
 (let ((?x2401 (- (+ (* ?x963 ?x2118) (* (* 2.0 l_0_3_19) l_0_3_22)) (* (* 10.0 l_0_3_22) l_0_3_22))))
 (let ((?x2407 (- (- ?x2401 (* (* 10.0 l_0_3_23) l_0_3_23)) (* (* 10.0 l_0_3_24) l_0_3_24))))
 (= ?x2407 0.0)))))))
(assert
 (let ((?x2225 (* l_0_3_15 l_0_3_15)))
 (let ((?x2219 (* l_0_3_14 l_0_3_14)))
 (let ((?x2438 (+ (* (- _a_3_) (+ (* l_0_3_2 l_0_3_2) (* l_0_3_3 l_0_3_3))) ?x2219)))
 (= (+ ?x2438 ?x2225) 0.0)))))
(assert
 (let ((?x2026 (+ (* (* 2.0 l_0_3_2) l_0_3_4) (* (* 2.0 l_0_3_3) l_0_3_5))))
 (let ((?x998 (- _a_3_)))
 (let ((?x2454 (+ (+ (* ?x998 ?x2026) (* (* 2.0 l_0_3_14) l_0_3_16)) (* (* 2.0 l_0_3_15) l_0_3_17))))
 (= ?x2454 0.0)))))
(assert
 (let ((?x2305 (* l_0_3_21 l_0_3_21)))
 (let ((?x2299 (* l_0_3_20 l_0_3_20)))
 (let ((?x2375 (* l_0_3_18 l_0_3_18)))
 (let ((?x2369 (* l_0_3_17 l_0_3_17)))
 (let ((?x2363 (* l_0_3_16 l_0_3_16)))
 (let ((?x2117 (* l_0_3_6 l_0_3_6)))
 (let ((?x2118 (+ (+ (* l_0_3_4 l_0_3_4) (* l_0_3_5 l_0_3_5)) ?x2117)))
 (let ((?x998 (- _a_3_)))
 (= (+ (+ (+ (+ (+ (* ?x998 ?x2118) ?x2363) ?x2369) ?x2375) ?x2299) ?x2305) 0.0))))))))))
(assert
 (let ((?x2485 (+ (* (* 2.0 l_0_3_20) l_0_3_22) (* (* 2.0 l_0_3_21) l_0_3_23))))
 (= ?x2485 0.0)))
(assert
 (let ((?x2430 (* l_0_3_24 l_0_3_24)))
 (= (+ (+ (* l_0_3_22 l_0_3_22) (* l_0_3_23 l_0_3_23)) ?x2430) 0.0)))
(assert
 (>= l_0_3_1 0.0))
(assert
 (>= l_0_3_3 0.0))
(assert
 (>= l_0_3_6 0.0))
(assert
 (>= l_0_3_7 0.0))
(assert
 (>= l_0_3_9 0.0))
(assert
 (>= l_0_3_12 0.0))
(assert
 (>= l_0_3_13 0.0))
(assert
 (>= l_0_3_15 0.0))
(assert
 (>= l_0_3_18 0.0))
(assert
 (>= l_0_3_19 0.0))
(assert
 (>= l_0_3_21 0.0))
(assert
 (>= l_0_3_24 0.0))
(assert
 (>= l_0_3_25 0.0))
(assert
 (>= l_0_3_27 0.0))
(assert
 (>= l_0_3_30 0.0))
(check-sat)
(get-model)